c File: instances/26_0.30_3.col
c
c Description: Random graph of size 26 vertices and P(0.3) of edges between any two vertices.
p col 26 325
e 1 5
e 1 7
e 1 9
e 1 11
e 1 21
e 1 23
e 2 10
e 2 11
e 2 16
e 3 5
e 3 10
e 3 17
e 3 18
e 4 6
e 4 7
e 4 8
e 4 18
e 4 25
e 5 19
e 5 21
e 5 23
e 5 26
e 6 10
e 6 12
e 6 18
e 7 10
e 7 12
e 7 13
e 7 17
e 7 22
e 7 25
e 7 26
e 8 15
e 8 18
e 8 22
e 8 24
e 9 12
e 9 14
e 9 24
e 10 14
e 10 16
e 10 20
e 10 22
e 10 23
e 11 17
e 11 19
e 11 22
e 11 23
e 12 13
e 12 16
e 12 19
e 12 21
e 12 23
e 12 26
e 13 14
e 13 15
e 13 17
e 13 19
e 13 21
e 13 24
e 14 19
e 14 22
e 14 23
e 15 20
e 15 21
e 16 17
e 16 18
e 16 25
e 16 26
e 17 18
e 17 19
e 17 21
e 17 25
e 17 26
e 18 19
e 18 22
e 18 25
e 19 20
e 19 21
e 20 26
e 21 22
e 21 23
e 21 25
e 22 23
e 22 24
e 24 26